n = 16;
guard = [0, 8, 3, 5, 0, 3, 9, 8, 0, 4, 0, 0, 10, 8, 14, 8]; 
m = 27;
%m = 26;
edge = [| 1,2
        | 1,10
        | 2,3
  %     | 2,6
        | 2,7
        | 3,4
        | 3,8
        | 3,11
  %     | 3,15
        | 4,5
        | 4,8
        | 4,16
        | 5,16
  %     | 5,11
        | 6,10
        | 6,11
        | 7,8
        | 7,12
        | 8,10
        | 8,12
        | 9,9
        | 9,15
        | 9,16
        | 11,14
        | 12,13
        | 12,14
        | 12,15
        | 13,15
        | 13,16
        | 14,15 |];
rest = 3;
start = 1;
dest = 9;
maxstep = 10;
